scripts/logs/SAT-p4-enforced/bwp_8_2_1.SAT.log.out
dt jun 5 19:19:40 CEST 2018
    [1;34mTry max length:[0m 999999
    [1;34m    At iteration:[0m 0
        lingeling found a solution in .009 ms

      | W
    L | 0 1 2 3 4 5 6 7 
    --------------------
    0 | 1 . . . . . . . 
    1 | . . . . 2 . . . 
    
    Boxes' corners:      (w,l)
        Box 1 is at 
            top left     (0,0)
            bottom right (0,0)
    
        Box 2 is at 
            top left     (4,1)
            bottom right (4,1)
    
        Roll length used: 2

    [1;34mTry max length:[0m 1
    [1;34m    At iteration:[0m 1
        lingeling found a solution in .008 ms

      | W
    L | 0 1 2 3 4 5 6 7 
    --------------------
    0 | 1 2 . . . . . . 
    
    Boxes' corners:      (w,l)
        Box 1 is at 
            top left     (0,0)
            bottom right (0,0)
    
        Box 2 is at 
            top left     (1,0)
            bottom right (1,0)
    
        Roll length used: 1

    [1;34mTry max length:[0m 0
    [1;34m    At iteration:[0m 2
        [3;31mlingeling determined unsatisfiability of the Boolean formula[0m
        [1;32mOptimality reached![0m
